Running for instance ./models/r209.txt
Generating routes...
Execution time:  0.119817016667  minutes
Academic license - for non-commercial use only
Warning: constraint name "Cliente esta na rota" has a space
Optimize a model with 26 rows, 5000 columns and 43540 nonzeros
Variable types: 0 continuous, 5000 integer (0 binary)
Coefficient statistics:
  Matrix range     [1e+00, 1e+00]
  Objective range  [5e+01, 4e+02]
  Bounds range     [1e+00, 1e+00]
  RHS range        [1e+00, 2e+01]
Found heuristic solution: objective 1029.1994254
Presolve removed 3 rows and 17 columns
Presolve time: 0.03s
Presolved: 23 rows, 4983 columns, 39055 nonzeros
Variable types: 0 continuous, 4983 integer (4983 binary)

Root relaxation: objective 4.764265e+02, 64 iterations, 0.00 seconds

    Nodes    |    Current Node    |     Objective Bounds      |     Work
 Expl Unexpl |  Obj  Depth IntInf | Incumbent    BestBd   Gap | It/Node Time

     0     0  476.42646    0   10 1029.19943  476.42646  53.7%     -    0s
H    0     0                     498.3636405  476.42646  4.40%     -    0s
H    0     0                     492.8797930  476.42646  3.34%     -    0s
     0     0  476.98784    0    8  492.87979  476.98784  3.22%     -    0s

Cutting planes:
  MIR: 1

Explored 1 nodes (66 simplex iterations) in 0.08 seconds
Thread count was 8 (of 8 available processors)

Solution count 3: 492.88 498.364 1029.2 

Optimal solution found (tolerance 1.00e-04)
Best objective 4.928797930129e+02, best bound 4.928797930129e+02, gap 0.0000%
12 21
13 6 17 8 10 1 24 25
5 18 16 14 15 23
18 7 19 11 20 9
Distance: 492.879793013
Execution time:  0.1270867  minutes
